NAME: instances/5_2.tsp
TYPE: TSP
COMMENT: 5-Staedte in Burma (Zaw Win)
DIMENSION: 5
EDGE_WEIGHT_TYPE: GEO
EDGE_WEIGHT_FORMAT: FUNCTION
DISPLAY_DATA_TYPE: COORD_DISPLAY
NODE_COORD_SECTION
1 -16.34 -14.47
2 -24.98 -22.56
3 29.21 8.94
4 -18.15 -12.17
5 11.72 -25.22
EOF
